988
1033
1033
1010
935
935
1055
999
999
999
999
979
1004
1004
1009
1031
1019
1032
871
871
890
890
890
890
818
818
972
924
924
972
965
972
972
965
965
965
996
962
979
754
965
928
928
911
911
876
876
911
866
911
911
988
915
915
831
831
831
831
831
831
831
910
910
910
910
937
1009
1002
931
970
970
970
970
950
944
944
998
975
949
883
883
859
868
868
868
868
868
868
961
913
961
961
839
839
839
839
921
939
939
925
